;; produced by cvc4_16.drv ;;
(set-logic AUFBVFPDTNIRA)
(set-info :smt-lib-version 2.6)
;;; generated by SMT-LIB2 driver
;;; SMT-LIB2 driver: bit-vectors, common part
;;; SMT-LIB2: integer arithmetic
(declare-sort string 0)

(declare-datatypes ((tuple0 0))
(((Tuple0))))
(declare-sort us_private 0)

(declare-fun private__bool_eq (us_private us_private) Bool)

(declare-const us_null_ext__ us_private)

(declare-sort us_type_of_heap 0)

(declare-datatypes ((us_type_of_heap__ref 0))
(((us_type_of_heap__refqtmk (us_type_of_heap__content us_type_of_heap)))))
(declare-sort us_image 0)

(declare-datatypes ((int__ref 0))
(((int__refqtmk (int__content Int)))))
(declare-datatypes ((bool__ref 0))
(((bool__refqtmk (bool__content Bool)))))
(declare-datatypes ((us_fixed__ref 0))
(((us_fixed__refqtmk (us_fixed__content Int)))))
(declare-datatypes ((real__ref 0))
(((real__refqtmk (real__content Real)))))
(declare-datatypes ((us_private__ref 0))
(((us_private__refqtmk (us_private__content us_private)))))
(define-fun int__ref___projection ((a int__ref)) Int (int__content a))

(define-fun us_fixed__ref___projection ((a us_fixed__ref)) Int (us_fixed__content
                                                               a))

(define-fun bool__ref___projection ((a bool__ref)) Bool (bool__content a))

(define-fun real__ref___projection ((a real__ref)) Real (real__content a))

(define-fun us_private__ref___projection ((a us_private__ref)) us_private 
  (us_private__content a))

(declare-sort integer 0)

(declare-fun integerqtint (integer) Int)

;; integer'axiom
  (assert
  (forall ((i integer))
  (and (<= (- 2147483648) (integerqtint i)) (<= (integerqtint i) 2147483647))))

(define-fun in_range ((x Int)) Bool (and (<= (- 2147483648) x)
                                    (<= x 2147483647)))

(declare-fun attr__ATTRIBUTE_IMAGE (Int) us_image)

(declare-fun attr__ATTRIBUTE_VALUE__pre_check (us_image) Bool)

(declare-fun attr__ATTRIBUTE_VALUE (us_image) Int)

(declare-fun user_eq (integer integer) Bool)

(declare-const dummy integer)

(declare-datatypes ((integer__ref 0))
(((integer__refqtmk (integer__content integer)))))
(define-fun integer__ref_integer__content__projection ((a integer__ref)) integer 
  (integer__content a))

(define-fun dynamic_invariant ((temp___expr_18 Int) (temp___is_init_14 Bool)
  (temp___skip_constant_15 Bool) (temp___do_toplevel_16 Bool)
  (temp___do_typ_inv_17 Bool)) Bool (=>
                                    (or (= temp___is_init_14 true)
                                    (<= (- 2147483648) 2147483647)) (in_range
                                    temp___expr_18)))

(define-fun to_rep ((x integer)) Int (integerqtint x))

(declare-fun of_rep (Int) integer)

;; inversion_axiom
  (assert
  (forall ((x integer)) (! (= (of_rep (to_rep x)) x) :pattern ((to_rep x)) )))

;; range_axiom
  (assert
  (forall ((x integer)) (! (in_range (to_rep x)) :pattern ((to_rep x)) )))

;; coerce_axiom
  (assert
  (forall ((x Int))
  (! (=> (in_range x) (= (to_rep (of_rep x)) x)) :pattern ((to_rep
                                                           (of_rep x))) )))

(declare-datatypes ((us_split_fields 0))
(((us_split_fieldsqtmk
  (rec__foo__coordinate_t__x integer)(rec__foo__coordinate_t__y integer)(rec__foo__coordinate_t__z integer)))))
(define-fun us_split_fields_rec__foo__coordinate_t__x__projection ((a us_split_fields)) integer 
  (rec__foo__coordinate_t__x a))

(define-fun us_split_fields_rec__foo__coordinate_t__y__projection ((a us_split_fields)) integer 
  (rec__foo__coordinate_t__y a))

(define-fun us_split_fields_rec__foo__coordinate_t__z__projection ((a us_split_fields)) integer 
  (rec__foo__coordinate_t__z a))

(declare-datatypes ((us_split_fields__ref 0))
(((us_split_fields__refqtmk (us_split_fields__content us_split_fields)))))
(define-fun us_split_fields__ref___split_fields__content__projection ((a us_split_fields__ref)) us_split_fields 
  (us_split_fields__content a))

(declare-datatypes ((us_rep 0))
(((us_repqtmk (us_split_fields1 us_split_fields)))))
(define-fun us_rep___split_fields__projection ((a us_rep)) us_split_fields 
  (us_split_fields1 a))

(define-fun bool_eq ((a us_rep)
  (b us_rep)) Bool (ite (and
                        (and
                        (= (to_rep
                           (rec__foo__coordinate_t__x (us_split_fields1 a))) 
                        (to_rep
                        (rec__foo__coordinate_t__x (us_split_fields1 b))))
                        (= (to_rep
                           (rec__foo__coordinate_t__y (us_split_fields1 a))) 
                        (to_rep
                        (rec__foo__coordinate_t__y (us_split_fields1 b)))))
                        (= (to_rep
                           (rec__foo__coordinate_t__z (us_split_fields1 a))) 
                        (to_rep
                        (rec__foo__coordinate_t__z (us_split_fields1 b)))))
                   true false))

(declare-const value__size Int)

(declare-const object__size Int)

(declare-const alignment Int)

;; value__size_axiom
  (assert (<= 0 value__size))

;; object__size_axiom
  (assert (<= 0 object__size))

;; alignment_axiom
  (assert (<= 0 alignment))

(declare-const foo__coordinate_t__x__first__bit Int)

(declare-const foo__coordinate_t__x__last__bit Int)

(declare-const foo__coordinate_t__x__position Int)

;; foo__coordinate_t__x__first__bit_axiom
  (assert (<= 0 foo__coordinate_t__x__first__bit))

;; foo__coordinate_t__x__last__bit_axiom
  (assert
  (< foo__coordinate_t__x__first__bit foo__coordinate_t__x__last__bit))

;; foo__coordinate_t__x__position_axiom
  (assert (<= 0 foo__coordinate_t__x__position))

(declare-const foo__coordinate_t__y__first__bit Int)

(declare-const foo__coordinate_t__y__last__bit Int)

(declare-const foo__coordinate_t__y__position Int)

;; foo__coordinate_t__y__first__bit_axiom
  (assert (<= 0 foo__coordinate_t__y__first__bit))

;; foo__coordinate_t__y__last__bit_axiom
  (assert
  (< foo__coordinate_t__y__first__bit foo__coordinate_t__y__last__bit))

;; foo__coordinate_t__y__position_axiom
  (assert (<= 0 foo__coordinate_t__y__position))

(declare-const foo__coordinate_t__z__first__bit Int)

(declare-const foo__coordinate_t__z__last__bit Int)

(declare-const foo__coordinate_t__z__position Int)

;; foo__coordinate_t__z__first__bit_axiom
  (assert (<= 0 foo__coordinate_t__z__first__bit))

;; foo__coordinate_t__z__last__bit_axiom
  (assert
  (< foo__coordinate_t__z__first__bit foo__coordinate_t__z__last__bit))

;; foo__coordinate_t__z__position_axiom
  (assert (<= 0 foo__coordinate_t__z__position))

(declare-fun user_eq1 (us_rep us_rep) Bool)

(declare-const dummy1 us_rep)

(declare-datatypes ((coordinate_t__ref 0))
(((coordinate_t__refqtmk (coordinate_t__content us_rep)))))
(define-fun coordinate_t__ref_coordinate_t__content__projection ((a coordinate_t__ref)) us_rep 
  (coordinate_t__content a))

(declare-datatypes ((map__ref 0))
(((map__refqtmk (map__content (Array Int us_rep))))))
(declare-fun slide ((Array Int us_rep) Int Int) (Array Int us_rep))

;; slide_eq
  (assert
  (forall ((a (Array Int us_rep)))
  (forall ((first Int))
  (! (= (slide a first first) a) :pattern ((slide a first first)) ))))

;; slide_def
  (assert
  (forall ((a (Array Int us_rep)))
  (forall ((old_first Int))
  (forall ((new_first Int))
  (forall ((i Int))
  (! (= (select (slide a old_first new_first) i) (select a (- i (- new_first old_first)))) :pattern ((select 
  (slide a old_first new_first) i)) ))))))

(define-fun bool_eq1 ((a (Array Int us_rep)) (a__first Int) (a__last Int)
  (b (Array Int us_rep)) (b__first Int)
  (b__last Int)) Bool (ite (and
                           (ite (<= a__first a__last)
                           (and (<= b__first b__last)
                           (= (- a__last a__first) (- b__last b__first)))
                           (< b__last b__first))
                           (forall ((temp___idx_155 Int))
                           (=>
                           (and (<= a__first temp___idx_155)
                           (<= temp___idx_155 a__last))
                           (= (bool_eq (select a temp___idx_155)
                              (select b (+ (- b__first a__first) temp___idx_155))) true))))
                      true false))

;; bool_eq_rev
  (assert
  (forall ((a (Array Int us_rep)) (b (Array Int us_rep)))
  (forall ((a__first Int) (a__last Int) (b__first Int) (b__last Int))
  (=> (= (bool_eq1 b b__first b__last a a__first a__last) true)
  (and
  (ite (<= a__first a__last)
  (and (<= b__first b__last) (= (- a__last a__first) (- b__last b__first)))
  (< b__last b__first))
  (forall ((temp___idx_155 Int))
  (=> (and (<= a__first temp___idx_155) (<= temp___idx_155 a__last))
  (= (bool_eq (select a temp___idx_155)
     (select b (+ (- b__first a__first) temp___idx_155))) true))))))))

(declare-const dummy2 (Array Int us_rep))

(declare-const value__size1 Int)

(declare-const object__size1 Int)

(declare-const component__size Int)

(declare-const alignment1 Int)

;; value__size_axiom
  (assert (<= 0 value__size1))

;; object__size_axiom
  (assert (<= 0 object__size1))

;; component__size_axiom
  (assert (<= 0 component__size))

;; alignment_axiom
  (assert (<= 0 alignment1))

(declare-fun user_eq2 ((Array Int us_rep) (Array Int us_rep)) Bool)

(declare-datatypes ((us_split_fields2 0))
(((us_split_fieldsqtmk1
  (rec__foo__var_carray__n integer)(rec__foo__var_carray__a (Array Int us_rep))))))
(define-fun us_split_fields_rec__foo__var_carray__n__projection ((a us_split_fields2)) integer 
  (rec__foo__var_carray__n a))

(define-fun us_split_fields_rec__foo__var_carray__a__projection ((a us_split_fields2)) (Array Int us_rep) 
  (rec__foo__var_carray__a a))

(declare-datatypes ((us_split_fields__ref1 0))
(((us_split_fields__refqtmk1 (us_split_fields__content1 us_split_fields2)))))
(define-fun us_split_fields__ref___split_fields__content__2__projection ((a us_split_fields__ref1)) us_split_fields2 
  (us_split_fields__content1 a))

(declare-datatypes ((us_rep1 0))
(((us_repqtmk1 (us_split_fields3 us_split_fields2)))))
(define-fun us_rep___split_fields__2__projection ((a us_rep1)) us_split_fields2 
  (us_split_fields3 a))

(define-fun bool_eq2 ((a us_rep1)
  (b us_rep1)) Bool (ite (and
                         (= (to_rep
                            (rec__foo__var_carray__n (us_split_fields3 a))) 
                         (to_rep
                         (rec__foo__var_carray__n (us_split_fields3 b))))
                         (= (bool_eq1
                            (rec__foo__var_carray__a (us_split_fields3 a)) 1
                            5 (rec__foo__var_carray__a (us_split_fields3 b))
                            1 5) true))
                    true false))

(declare-const value__size2 Int)

(declare-const object__size2 Int)

(declare-const alignment2 Int)

;; value__size_axiom
  (assert (<= 0 value__size2))

;; object__size_axiom
  (assert (<= 0 object__size2))

;; alignment_axiom
  (assert (<= 0 alignment2))

(declare-const foo__var_carray__n__first__bit Int)

(declare-const foo__var_carray__n__last__bit Int)

(declare-const foo__var_carray__n__position Int)

;; foo__var_carray__n__first__bit_axiom
  (assert (<= 0 foo__var_carray__n__first__bit))

;; foo__var_carray__n__last__bit_axiom
  (assert (< foo__var_carray__n__first__bit foo__var_carray__n__last__bit))

;; foo__var_carray__n__position_axiom
  (assert (<= 0 foo__var_carray__n__position))

(declare-const foo__var_carray__a__first__bit Int)

(declare-const foo__var_carray__a__last__bit Int)

(declare-const foo__var_carray__a__position Int)

;; foo__var_carray__a__first__bit_axiom
  (assert (<= 0 foo__var_carray__a__first__bit))

;; foo__var_carray__a__last__bit_axiom
  (assert (< foo__var_carray__a__first__bit foo__var_carray__a__last__bit))

;; foo__var_carray__a__position_axiom
  (assert (<= 0 foo__var_carray__a__position))

(declare-fun user_eq3 (us_rep1 us_rep1) Bool)

(declare-const dummy3 us_rep1)

(declare-datatypes ((var_carray__ref 0))
(((var_carray__refqtmk (var_carray__content us_rep1)))))
(define-fun var_carray__ref_var_carray__content__projection ((a var_carray__ref)) us_rep1 
  (var_carray__content a))

(declare-const attr__ATTRIBUTE_ADDRESS Int)

(declare-const n Int)

(declare-const attr__ATTRIBUTE_ADDRESS1 Int)

(declare-const m Int)

(declare-const attr__ATTRIBUTE_ADDRESS2 Int)

(declare-sort tcarrD1 0)

(declare-fun tcarrD1qtint (tcarrD1) Int)

;; tcarrD1'axiom
  (assert
  (forall ((i tcarrD1))
  (and (<= 1 (tcarrD1qtint i)) (<= (tcarrD1qtint i) 5))))

(define-fun in_range1 ((x Int)) Bool (and (<= 1 x) (<= x 5)))

(declare-fun attr__ATTRIBUTE_IMAGE1 (Int) us_image)

(declare-fun attr__ATTRIBUTE_VALUE__pre_check1 (us_image) Bool)

(declare-fun attr__ATTRIBUTE_VALUE1 (us_image) Int)

(declare-fun user_eq4 (tcarrD1 tcarrD1) Bool)

(declare-const dummy4 tcarrD1)

(declare-datatypes ((tcarrD1__ref 0))
(((tcarrD1__refqtmk (tcarrD1__content tcarrD1)))))
(define-fun tcarrD1__ref_tcarrD1__content__projection ((a tcarrD1__ref)) tcarrD1 
  (tcarrD1__content a))

(declare-fun temp_____aggregate_def_223 ((Array Int us_rep) Int
  us_rep) (Array Int us_rep))

;; def_axiom
  (assert
  (forall ((temp___225 (Array Int us_rep)))
  (forall ((temp___226 Int))
  (forall ((temp___227 us_rep))
  (let ((temp___224 (temp_____aggregate_def_223 temp___225 temp___226
                    temp___227)))
  (=> (in_range1 temp___226)
  (forall ((temp___228 Int))
  (ite (= temp___228 temp___226)
  (= (select temp___224 temp___228) temp___227)
  (= (select temp___224 temp___228) (select temp___225 temp___228))))))))))

(assert
;; defqtvc
 ;; File "foo.adb", line 48, characters 0-0
  (not
  (=> (dynamic_invariant n true false true true)
  (=> (dynamic_invariant m true false true true) (<= 1 m)))))
(check-sat)
